\ENCODING=ISO-8859-1
\Problem name: ilog.cplex

Minimize
 obj1: 104937 x1 + 108056 x2 + 109735 x3 + 109718 x4 + 98370 x5 + 109722 x6
       + 92437 x7 + 109395 x8 + 92793 x9 + 98643 x10 + 93882 x11 + 101335 x12
       + 104959 x13 + 105337 x14 + 104985 x15 + 91309 x16 + 93361 x17
       + 106527 x18 + 91465 x19 + 90791 x20 + 94685 x21 + 92422 x22 + 90920 x23
       + 92692 x24 + 99446 x25 + 108734 x26 + 108829 x27 + 98013 x28
       + 90015 x29 + 104391 x30 + 101658 x31 + 107241 x32 + 90503 x33
       + 104223 x34 + 96765 x35 + 106356 x36 + 99900 x37 + 94800 x38
       + 106043 x39 + 104122 x40 + 97328 x41 + 101181 x42 + 103065 x43
       + 94637 x44 + 101480 x45 + 102490 x46 + 91948 x47 + 107164 x48
       + 95016 x49 + 105035 x50 + 103125 x51 + 97773 x52 + 95002 x53
       + 103633 x54 + 109780 x55 + 99039 x56 + 102205 x57 + 92965 x58
       + 92206 x59 + 107015 x60 + 108497 x61 + 101056 x62 + 100206 x63
       + 103688 x64 + 97902 x65 + 93266 x66 + 109642 x67 + 104139 x68
       + 96760 x69 + 97439 x70 + 97578 x71 + 109185 x72 + 92486 x73
       + 103593 x74 + 100950 x75 + 94936 x76 + 98107 x77 + 105749 x78
       + 106374 x79 + 106726 x80 + 94599 x81 + 98730 x82 + 95163 x83
       + 99583 x84 + 97280 x85 + 107837 x86 + 104640 x87 + 107735 x88
       + 97358 x89 + 109895 x90 + 104537 x91 + 91598 x92 + 105253 x93
       + 100484 x94 + 105555 x95 + 102288 x96 + 108394 x97 + 94018 x98
       + 96106 x99 + 100898 x100 + 92609 x101 + 106345 x102 + 109042 x103
       + 90205 x104 + 104168 x105 + 95244 x106 + 96042 x107 + 97094 x108
       + 107354 x109 + 102634 x110 + 92229 x111 + 105991 x112 + 90734 x113
       + 106445 x114 + 105425 x115 + 107164 x116 + 107381 x117 + 92362 x118
       + 103398 x119 + 99086 x120 + 97148 x121 + 93796 x122 + 91536 x123
       + 91559 x124 + 98700 x125 + 103133 x126 + 100060 x127 + 101386 x128
       + 108692 x129 + 100126 x130 + 97636 x131 + 95066 x132 + 93329 x133
       + 95660 x134 + 96407 x135 + 98131 x136 + 90998 x137 + 92085 x138
       + 97202 x139 + 96588 x140 + 103731 x141 + 94960 x142 + 103099 x143
       + 102311 x144 + 99989 x145 + 95261 x146 + 104539 x147 + 101313 x148
       + 101559 x149 + 95976 x150 + 102515 x151 + 100996 x152 + 104701 x153
       + 96397 x154 + 92450 x155 + 97458 x156 + 97092 x157 + 91705 x158
       + 106856 x159 + 106237 x160 + 100884 x161 + 95206 x162 + 102884 x163
       + 92162 x164 + 101324 x165 + 102775 x166 + 95183 x167 + 109035 x168
       + 93047 x169 + 108181 x170 + 92400 x171 + 97723 x172 + 101663 x173
       + 106606 x174 + 104231 x175 + 97020 x176 + 108372 x177 + 91715 x178
       + 94350 x179 + 108744 x180 + 108128 x181 + 105180 x182 + 105043 x183
       + 109858 x184 + 105120 x185 + 104175 x186 + 100479 x187 + 91239 x188
       + 103333 x189 + 104548 x190 + 107290 x191 + 105293 x192 + 104430 x193
       + 95202 x194 + 93492 x195 + 102720 x196 + 100429 x197 + 102712 x198
       + 99783 x199 + 92520 x200 + 108720 x201 + 98997 x202 + 101452 x203
       + 108491 x204 + 92332 x205 + 99151 x206 + 108891 x207 + 93541 x208
       + 97680 x209 + 103995 x210 + 95300 x211 + 98398 x212 + 108507 x213
       + 90064 x214 + 109149 x215 + 98921 x216 + 101188 x217 + 97802 x218
       + 95870 x219 + 90528 x220 + 99867 x221 + 102418 x222 + 97626 x223
       + 101006 x224 + 91489 x225 + 100475 x226 + 94744 x227 + 90467 x228
       + 107487 x229 + 104365 x230 + 92061 x231 + 107487 x232 + 93243 x233
       + 98266 x234 + 93114 x235 + 109705 x236 + 96491 x237 + 91194 x238
       + 90467 x239 + 107038 x240 + 91472 x241 + 105495 x242 + 91392 x243
       + 106135 x244 + 96887 x245 + 102347 x246 + 94733 x247 + 105821 x248
       + 102654 x249 + 109852 x250 + 103775 x251 + 93363 x252 + 97008 x253
       + 100917 x254 + 96206 x255 + 93393 x256 + 106796 x257 + 95293 x258
       + 93219 x259 + 109067 x260 + 102162 x261 + 96285 x262 + 108996 x263
       + 99013 x264 + 92960 x265 + 95989 x266 + 90987 x267 + 101898 x268
       + 108276 x269 + 106922 x270 + 98291 x271 + 108531 x272 + 106482 x273
       + 109685 x274 + 103808 x275 + 103632 x276 + 109328 x277 + 92346 x278
       + 99583 x279 + 95431 x280 + 107967 x281 + 91679 x282 + 94346 x283
       + 104120 x284 + 106167 x285 + 99549 x286 + 102414 x287 + 98632 x288
       + 93954 x289 + 106495 x290 + 93939 x291 + 95278 x292 + 103545 x293
       + 98975 x294 + 107880 x295 + 101519 x296 + 108657 x297 + 106717 x298
       + 101162 x299 + 103451 x300 + 96554 x301 + 105492 x302 + 106499 x303
       + 93768 x304 + 105833 x305 + 96475 x306 + 99139 x307 + 101923 x308
       + 93686 x309 + 109697 x310 + 99187 x311 + 106604 x312 + 91662 x313
       + 106249 x314 + 94071 x315 + 109267 x316 + 95749 x317 + 98396 x318
       + 93528 x319 + 93071 x320 + 93876 x321 + 90457 x322 + 91880 x323
       + 105352 x324 + 109061 x325 + 99412 x326 + 107899 x327 + 92709 x328
       + 101946 x329 + 97570 x330 + 102030 x331 + 98698 x332 + 102414 x333
       + 95182 x334 + 107019 x335 + 92484 x336 + 91587 x337 + 106940 x338
       + 99870 x339 + 95707 x340 + 92679 x341 + 103080 x342 + 90599 x343
       + 94355 x344 + 92048 x345 + 93148 x346 + 106367 x347 + 102649 x348
       + 100207 x349 + 108489 x350 + 98128 x351 + 93309 x352 + 97170 x353
       + 102243 x354 + 91944 x355 + 101007 x356 + 102179 x357 + 107492 x358
       + 94914 x359 + 95967 x360 + 94404 x361 + 97551 x362 + 96682 x363
       + 91200 x364 + 109611 x365 + 109403 x366 + 91821 x367 + 100142 x368
       + 97763 x369 + 100459 x370 + 107913 x371 + 94678 x372 + 92448 x373
       + 94871 x374 + 90895 x375 + 95567 x376 + 109482 x377 + 107511 x378
       + 100160 x379 + 105270 x380 + 91412 x381 + 104633 x382 + 99465 x383
       + 92609 x384 + 101001 x385 + 104957 x386 + 93975 x387 + 93696 x388
       + 93891 x389 + 95227 x390 + 98613 x391 + 104223 x392 + 108262 x393
       + 90251 x394 + 108375 x395 + 104442 x396 + 97654 x397 + 109032 x398
       + 97402 x399 + 100121 x400 + 100200 x401 + 101476 x402 + 107498 x403
       + 106685 x404 + 105097 x405 + 108067 x406 + 108069 x407 + 107537 x408
       + 108319 x409 + 100248 x410 + 93293 x411 + 91322 x412 + 98467 x413
       + 98003 x414 + 100495 x415 + 96121 x416 + 108725 x417 + 107142 x418
       + 92055 x419 + 104634 x420 + 96579 x421 + 94696 x422 + 103009 x423
       + 99045 x424 + 107760 x425 + 90427 x426 + 109459 x427 + 93924 x428
       + 105342 x429 + 103454 x430 + 96766 x431 + 97119 x432 + 107388 x433
       + 97489 x434 + 104306 x435 + 90892 x436 + 94731 x437 + 103411 x438
       + 107055 x439 + 98596 x440 + 104230 x441 + 103660 x442 + 103320 x443
       + 105771 x444 + 92214 x445 + 99401 x446 + 92663 x447 + 98786 x448
       + 97884 x449 + 108413 x450 + 99378 x451 + 94895 x452 + 106020 x453
       + 92963 x454 + 106513 x455 + 91890 x456 + 109356 x457 + 102507 x458
       + 107439 x459 + 104435 x460 + 105277 x461 + 104330 x462 + 106700 x463
       + 100918 x464 + 102090 x465 + 97642 x466 + 107559 x467 + 109274 x468
       + 95803 x469 + 99963 x470 + 95473 x471 + 95961 x472 + 106368 x473
       + 106122 x474 + 98078 x475 + 91896 x476 + 104059 x477 + 100919 x478
       + 108573 x479 + 94867 x480 + 95370 x481 + 103509 x482 + 102060 x483
       + 108916 x484 + 98318 x485 + 102830 x486 + 97717 x487 + 97737 x488
       + 108161 x489 + 100283 x490 + 103563 x491 + 91397 x492 + 96241 x493
       + 108412 x494 + 105188 x495 + 93449 x496 + 97074 x497 + 102452 x498
       + 104929 x499 - 16615 x500 + 39354 x501 + 43792 x502 + 42249 x503
       + 43572 x504 + 39534 x505 + 39363 x506 + 40618 x507 + 42010 x508
       + 41810 x509 + 37648 x510 + 41302 x511 + 37806 x512 + 41844 x513
       + 40428 x514 + 43642 x515 + 37082 x516 + 42970 x517 + 37304 x518
       + 42577 x519 + 41153 x520 + 38208 x521 + 43886 x522 + 42263 x523
       + 43666 x524 + 41693 x525 + 37447 x526 + 36127 x527 + 41858 x528
       + 39608 x529 + 38812 x530 + 43443 x531 + 42700 x532 + 42934 x533
       + 43898 x534 + 38112 x535 + 41671 x536 + 37259 x537 + 41680 x538
       + 39656 x539 + 39661 x540 + 42576 x541 + 39495 x542 + 39482 x543
       + 38031 x544 + 38477 x545 + 43506 x546 + 39309 x547 + 37102 x548
       + 41297 x549 + 10085 x550
Subject To
 c1:   - x22 + x25 - x26 - x31  = 0
 c2:   - x72 + x75 - x76 - x81  = 0
 c3:   - x122 + x125 - x126 - x131  = 1
 c4:   - x172 + x175 - x176 - x181  = 0
 c5:   - x222 + x225 - x226 - x231  = 0
 c6:   - x272 + x275 - x276 - x281  = 0
 c7:   - x322 + x325 - x326 - x331  = 0
 c8:   - x372 + x375 - x376 - x381  = 0
 c9:   - x422 + x425 - x426 - x431  = 0
 c10:  - x472 + x475 - x476 - x481  = 0
 c11:  - x4 + x11 - x27 + x28 + x33 - x39 + x48  = 0
 c12:  - x54 + x61 - x77 + x78 + x83 - x89 + x98  = 0
 c13:  - x104 + x111 - x127 + x128 + x133 - x139 + x148  = 0
 c14:  - x154 + x161 - x177 + x178 + x183 - x189 + x198  = 1
 c15:  - x204 + x211 - x227 + x228 + x233 - x239 + x248  = 0
 c16:  - x254 + x261 - x277 + x278 + x283 - x289 + x298  = 0
 c17:  - x304 + x311 - x327 + x328 + x333 - x339 + x348  = 1
 c18:  - x354 + x361 - x377 + x378 + x383 - x389 + x398  = 0
 c19:  - x404 + x411 - x427 + x428 + x433 - x439 + x448  = 0
 c20:  - x454 + x461 - x477 + x478 + x483 - x489 + x498  = 0
 c21:  x18 + x19 - x46 + x49 + x50  = 0
 c22:  x68 + x69 - x96 + x99 + x100  = 0
 c23:  x118 + x119 - x146 + x149 + x150  = 0
 c24:  x168 + x169 - x196 + x199 + x200  = 0
 c25:  x218 + x219 - x246 + x249 + x250  = 0
 c26:  x268 + x269 - x296 + x299 + x300  = -1
 c27:  x318 + x319 - x346 + x349 + x350  = 0
 c28:  x368 + x369 - x396 + x399 + x400  = 0
 c29:  x418 + x419 - x446 + x449 + x450  = 0
 c30:  x468 + x469 - x496 + x499 + x500  = 0
 c31:  - x2 + x3 - x15 + x17 - x18 - x24 + x36 + x37 + x38 + x45  = 0
 c32:  - x52 + x53 - x65 + x67 - x68 - x74 + x86 + x87 + x88 + x95  = 0
 c33:  - x102 + x103 - x115 + x117 - x118 - x124 + x136 + x137 + x138 + x145
        = 0
 c34:  - x152 + x153 - x165 + x167 - x168 - x174 + x186 + x187 + x188 + x195
        = 0
 c35:  - x202 + x203 - x215 + x217 - x218 - x224 + x236 + x237 + x238 + x245
        = 1
 c36:  - x252 + x253 - x265 + x267 - x268 - x274 + x286 + x287 + x288 + x295
        = 1
 c37:  - x302 + x303 - x315 + x317 - x318 - x324 + x336 + x337 + x338 + x345
        = 0
 c38:  - x352 + x353 - x365 + x367 - x368 - x374 + x386 + x387 + x388 + x395
        = 0
 c39:  - x402 + x403 - x415 + x417 - x418 - x424 + x436 + x437 + x438 + x445
        = 0
 c40:  - x452 + x453 - x465 + x467 - x468 - x474 + x486 + x487 + x488 + x495
        = 0
 c41:  x4 + x6 - x9 - x11 + x23 + x24 - x32  = 0
 c42:  x54 + x56 - x59 - x61 + x73 + x74 - x82  = 0
 c43:  x104 + x106 - x109 - x111 + x123 + x124 - x132  = 0
 c44:  x154 + x156 - x159 - x161 + x173 + x174 - x182  = 0
 c45:  x204 + x206 - x209 - x211 + x223 + x224 - x232  = 0
 c46:  x254 + x256 - x259 - x261 + x273 + x274 - x282  = 0
 c47:  x304 + x306 - x309 - x311 + x323 + x324 - x332  = 0
 c48:  x354 + x356 - x359 - x361 + x373 + x374 - x382  = 0
 c49:  x404 + x406 - x409 - x411 + x423 + x424 - x432  = 0
 c50:  x454 + x456 - x459 - x461 + x473 + x474 - x482  = 0
 c51:  x22 - x47  = 0
 c52:  x72 - x97  = 0
 c53:  x122 - x147  = 0
 c54:  x172 - x197  = 0
 c55:  x222 - x247  = 0
 c56:  x272 - x297  = 0
 c57:  x322 - x347  = 0
 c58:  x372 - x397  = -1
 c59:  x422 - x447  = 0
 c60:  x472 - x497  = -1
 c61:  x1 - x6 - x21 - x25 - x29 - x30 + x32 - x37 + x44  = 0
 c62:  x51 - x56 - x71 - x75 - x79 - x80 + x82 - x87 + x94  = 0
 c63:  x101 - x106 - x121 - x125 - x129 - x130 + x132 - x137 + x144  = 0
 c64:  x151 - x156 - x171 - x175 - x179 - x180 + x182 - x187 + x194  = 0
 c65:  x201 - x206 - x221 - x225 - x229 - x230 + x232 - x237 + x244  = 0
 c66:  x251 - x256 - x271 - x275 - x279 - x280 + x282 - x287 + x294  = 0
 c67:  x301 - x306 - x321 - x325 - x329 - x330 + x332 - x337 + x344  = 0
 c68:  x351 - x356 - x371 - x375 - x379 - x380 + x382 - x387 + x394  = 0
 c69:  x401 - x406 - x421 - x425 - x429 - x430 + x432 - x437 + x444  = 0
 c70:  x451 - x456 - x471 - x475 - x479 - x480 + x482 - x487 + x494  = 0
 c71:  - x7 + x9 + x13 + x26 + x30 - x42 - x50  = 1
 c72:  - x57 + x59 + x63 + x76 + x80 - x92 - x100  = 0
 c73:  - x107 + x109 + x113 + x126 + x130 - x142 - x150  = 0
 c74:  - x157 + x159 + x163 + x176 + x180 - x192 - x200  = 0
 c75:  - x207 + x209 + x213 + x226 + x230 - x242 - x250  = 0
 c76:  - x257 + x259 + x263 + x276 + x280 - x292 - x300  = 0
 c77:  - x307 + x309 + x313 + x326 + x330 - x342 - x350  = -1
 c78:  - x357 + x359 + x363 + x376 + x380 - x392 - x400  = 0
 c79:  - x407 + x409 + x413 + x426 + x430 - x442 - x450  = -1
 c80:  - x457 + x459 + x463 + x476 + x480 - x492 - x500  = 0
 c81:  - x3 - x5 - x10 - x12 - x19 + x31 + x34 - x43 - x48  = 0
 c82:  - x53 - x55 - x60 - x62 - x69 + x81 + x84 - x93 - x98  = 0
 c83:  - x103 - x105 - x110 - x112 - x119 + x131 + x134 - x143 - x148  = 0
 c84:  - x153 - x155 - x160 - x162 - x169 + x181 + x184 - x193 - x198  = 0
 c85:  - x203 - x205 - x210 - x212 - x219 + x231 + x234 - x243 - x248  = -1
 c86:  - x253 - x255 - x260 - x262 - x269 + x281 + x284 - x293 - x298  = 0
 c87:  - x303 - x305 - x310 - x312 - x319 + x331 + x334 - x343 - x348  = 0
 c88:  - x353 - x355 - x360 - x362 - x369 + x381 + x384 - x393 - x398  = 0
 c89:  - x403 - x405 - x410 - x412 - x419 + x431 + x434 - x443 - x448  = 0
 c90:  - x453 - x455 - x460 - x462 - x469 + x481 + x484 - x493 - x498  = 0
 c91:  x2 + x7 - x8 + x12 + x16 - x23 - x36 + x39 + x40 - x44  = 0
 c92:  x52 + x57 - x58 + x62 + x66 - x73 - x86 + x89 + x90 - x94  = 0
 c93:  x102 + x107 - x108 + x112 + x116 - x123 - x136 + x139 + x140 - x144
        = -1
 c94:  x152 + x157 - x158 + x162 + x166 - x173 - x186 + x189 + x190 - x194  = 0
 c95:  x202 + x207 - x208 + x212 + x216 - x223 - x236 + x239 + x240 - x244  = 0
 c96:  x252 + x257 - x258 + x262 + x266 - x273 - x286 + x289 + x290 - x294  = 0
 c97:  x302 + x307 - x308 + x312 + x316 - x323 - x336 + x339 + x340 - x344  = 0
 c98:  x352 + x357 - x358 + x362 + x366 - x373 - x386 + x389 + x390 - x394  = 0
 c99:  x402 + x407 - x408 + x412 + x416 - x423 - x436 + x439 + x440 - x444  = 0
 c100: x452 + x457 - x458 + x462 + x466 - x473 - x486 + x489 + x490 - x494  = 0
 c101: x5 + x8 + x21 + x42 - x45  = 0
 c102: x55 + x58 + x71 + x92 - x95  = 1
 c103: x105 + x108 + x121 + x142 - x145  = 0
 c104: x155 + x158 + x171 + x192 - x195  = -1
 c105: x205 + x208 + x221 + x242 - x245  = 0
 c106: x255 + x258 + x271 + x292 - x295  = 0
 c107: x305 + x308 + x321 + x342 - x345  = 0
 c108: x355 + x358 + x371 + x392 - x395  = 0
 c109: x405 + x408 + x421 + x442 - x445  = 0
 c110: x455 + x458 + x471 + x492 - x495  = 0
 c111: - x13 + x14 - x28 - x35 - x38 - x40 - x41  = 0
 c112: - x63 + x64 - x78 - x85 - x88 - x90 - x91  = 0
 c113: - x113 + x114 - x128 - x135 - x138 - x140 - x141  = 0
 c114: - x163 + x164 - x178 - x185 - x188 - x190 - x191  = 0
 c115: - x213 + x214 - x228 - x235 - x238 - x240 - x241  = 0
 c116: - x263 + x264 - x278 - x285 - x288 - x290 - x291  = 0
 c117: - x313 + x314 - x328 - x335 - x338 - x340 - x341  = 0
 c118: - x363 + x364 - x378 - x385 - x388 - x390 - x391  = 0
 c119: - x413 + x414 - x428 - x435 - x438 - x440 - x441  = 1
 c120: - x463 + x464 - x478 - x485 - x488 - x490 - x491  = 0
 c121: - x33 + x41 + x43 + x46 - x49  = 0
 c122: - x83 + x91 + x93 + x96 - x99  = 0
 c123: - x133 + x141 + x143 + x146 - x149  = 0
 c124: - x183 + x191 + x193 + x196 - x199  = 0
 c125: - x233 + x241 + x243 + x246 - x249  = 0
 c126: - x283 + x291 + x293 + x296 - x299  = 0
 c127: - x333 + x341 + x343 + x346 - x349  = 0
 c128: - x383 + x391 + x393 + x396 - x399  = 1
 c129: - x433 + x441 + x443 + x446 - x449  = 0
 c130: - x483 + x491 + x493 + x496 - x499  = 0
 c131: - x1 + x10 - x14 - x16 + x20 + x27 + x29 + x35 + x47  = 0
 c132: - x51 + x60 - x64 - x66 + x70 + x77 + x79 + x85 + x97  = 0
 c133: - x101 + x110 - x114 - x116 + x120 + x127 + x129 + x135 + x147  = 0
 c134: - x151 + x160 - x164 - x166 + x170 + x177 + x179 + x185 + x197  = 0
 c135: - x201 + x210 - x214 - x216 + x220 + x227 + x229 + x235 + x247  = 0
 c136: - x251 + x260 - x264 - x266 + x270 + x277 + x279 + x285 + x297  = 0
 c137: - x301 + x310 - x314 - x316 + x320 + x327 + x329 + x335 + x347  = 0
 c138: - x351 + x360 - x364 - x366 + x370 + x377 + x379 + x385 + x397  = 0
 c139: - x401 + x410 - x414 - x416 + x420 + x427 + x429 + x435 + x447  = 0
 c140: - x451 + x460 - x464 - x466 + x470 + x477 + x479 + x485 + x497  = 0
 c141: x15 - x17 - x20 - x34  = -1
 c142: x65 - x67 - x70 - x84  = -1
 c143: x115 - x117 - x120 - x134  = 0
 c144: x165 - x167 - x170 - x184  = 0
 c145: x215 - x217 - x220 - x234  = 0
 c146: x265 - x267 - x270 - x284  = 0
 c147: x315 - x317 - x320 - x334  = 0
 c148: x365 - x367 - x370 - x384  = 0
 c149: x415 - x417 - x420 - x434  = 0
 c150: x465 - x467 - x470 - x484  = 1
 c151: 4 x1 + 4 x51 + 4 x101 + 4 x151 + 4 x201 + 4 x251 + 4 x301 + 4 x351
       + 4 x401 + 4 x451 - 21 x501 <= 0
 c152: 4 x2 + 4 x52 + 4 x102 + 4 x152 + 4 x202 + 4 x252 + 4 x302 + 4 x352
       + 4 x402 + 4 x452 - 21 x502 <= 0
 c153: 4 x3 + 4 x53 + 4 x103 + 4 x153 + 4 x203 + 4 x253 + 4 x303 + 4 x353
       + 4 x403 + 4 x453 - 21 x503 <= 0
 c154: 4 x4 + 4 x54 + 4 x104 + 4 x154 + 4 x204 + 4 x254 + 4 x304 + 4 x354
       + 4 x404 + 4 x454 - 21 x504 <= 0
 c155: 4 x5 + 4 x55 + 4 x105 + 4 x155 + 4 x205 + 4 x255 + 4 x305 + 4 x355
       + 4 x405 + 4 x455 - 18 x505 <= 0
 c156: 4 x6 + 4 x56 + 4 x106 + 4 x156 + 4 x206 + 4 x256 + 4 x306 + 4 x356
       + 4 x406 + 4 x456 - 21 x506 <= 0
 c157: 4 x7 + 4 x57 + 4 x107 + 4 x157 + 4 x207 + 4 x257 + 4 x307 + 4 x357
       + 4 x407 + 4 x457 - 20 x507 <= 0
 c158: 4 x8 + 4 x58 + 4 x108 + 4 x158 + 4 x208 + 4 x258 + 4 x308 + 4 x358
       + 4 x408 + 4 x458 - 20 x508 <= 0
 c159: 4 x9 + 4 x59 + 4 x109 + 4 x159 + 4 x209 + 4 x259 + 4 x309 + 4 x359
       + 4 x409 + 4 x459 - 19 x509 <= 0
 c160: 4 x10 + 4 x60 + 4 x110 + 4 x160 + 4 x210 + 4 x260 + 4 x310 + 4 x360
       + 4 x410 + 4 x460 - 19 x510 <= 0
 c161: 4 x11 + 4 x61 + 4 x111 + 4 x161 + 4 x211 + 4 x261 + 4 x311 + 4 x361
       + 4 x411 + 4 x461 - 22 x511 <= 0
 c162: 4 x12 + 4 x62 + 4 x112 + 4 x162 + 4 x212 + 4 x262 + 4 x312 + 4 x362
       + 4 x412 + 4 x462 - 21 x512 <= 0
 c163: 4 x13 + 4 x63 + 4 x113 + 4 x163 + 4 x213 + 4 x263 + 4 x313 + 4 x363
       + 4 x413 + 4 x463 - 21 x513 <= 0
 c164: 4 x14 + 4 x64 + 4 x114 + 4 x164 + 4 x214 + 4 x264 + 4 x314 + 4 x364
       + 4 x414 + 4 x464 - 20 x514 <= 0
 c165: 4 x15 + 4 x65 + 4 x115 + 4 x165 + 4 x215 + 4 x265 + 4 x315 + 4 x365
       + 4 x415 + 4 x465 - 21 x515 <= 0
 c166: 4 x16 + 4 x66 + 4 x116 + 4 x166 + 4 x216 + 4 x266 + 4 x316 + 4 x366
       + 4 x416 + 4 x466 - 19 x516 <= 0
 c167: 4 x17 + 4 x67 + 4 x117 + 4 x167 + 4 x217 + 4 x267 + 4 x317 + 4 x367
       + 4 x417 + 4 x467 - 18 x517 <= 0
 c168: 4 x18 + 4 x68 + 4 x118 + 4 x168 + 4 x218 + 4 x268 + 4 x318 + 4 x368
       + 4 x418 + 4 x468 - 20 x518 <= 0
 c169: 4 x19 + 4 x69 + 4 x119 + 4 x169 + 4 x219 + 4 x269 + 4 x319 + 4 x369
       + 4 x419 + 4 x469 - 21 x519 <= 0
 c170: 4 x20 + 4 x70 + 4 x120 + 4 x170 + 4 x220 + 4 x270 + 4 x320 + 4 x370
       + 4 x420 + 4 x470 - 19 x520 <= 0
 c171: 4 x21 + 4 x71 + 4 x121 + 4 x171 + 4 x221 + 4 x271 + 4 x321 + 4 x371
       + 4 x421 + 4 x471 - 19 x521 <= 0
 c172: 4 x22 + 4 x72 + 4 x122 + 4 x172 + 4 x222 + 4 x272 + 4 x322 + 4 x372
       + 4 x422 + 4 x472 - 20 x522 <= 0
 c173: 4 x23 + 4 x73 + 4 x123 + 4 x173 + 4 x223 + 4 x273 + 4 x323 + 4 x373
       + 4 x423 + 4 x473 - 21 x523 <= 0
 c174: 4 x24 + 4 x74 + 4 x124 + 4 x174 + 4 x224 + 4 x274 + 4 x324 + 4 x374
       + 4 x424 + 4 x474 - 20 x524 <= 0
 c175: 4 x25 + 4 x75 + 4 x125 + 4 x175 + 4 x225 + 4 x275 + 4 x325 + 4 x375
       + 4 x425 + 4 x475 - 22 x525 <= 0
 c176: 4 x26 + 4 x76 + 4 x126 + 4 x176 + 4 x226 + 4 x276 + 4 x326 + 4 x376
       + 4 x426 + 4 x476 - 21 x526 <= 0
 c177: 4 x27 + 4 x77 + 4 x127 + 4 x177 + 4 x227 + 4 x277 + 4 x327 + 4 x377
       + 4 x427 + 4 x477 - 22 x527 <= 0
 c178: 4 x28 + 4 x78 + 4 x128 + 4 x178 + 4 x228 + 4 x278 + 4 x328 + 4 x378
       + 4 x428 + 4 x478 - 18 x528 <= 0
 c179: 4 x29 + 4 x79 + 4 x129 + 4 x179 + 4 x229 + 4 x279 + 4 x329 + 4 x379
       + 4 x429 + 4 x479 - 18 x529 <= 0
 c180: 4 x30 + 4 x80 + 4 x130 + 4 x180 + 4 x230 + 4 x280 + 4 x330 + 4 x380
       + 4 x430 + 4 x480 - 21 x530 <= 0
 c181: 4 x31 + 4 x81 + 4 x131 + 4 x181 + 4 x231 + 4 x281 + 4 x331 + 4 x381
       + 4 x431 + 4 x481 - 21 x531 <= 0
 c182: 4 x32 + 4 x82 + 4 x132 + 4 x182 + 4 x232 + 4 x282 + 4 x332 + 4 x382
       + 4 x432 + 4 x482 - 20 x532 <= 0
 c183: 4 x33 + 4 x83 + 4 x133 + 4 x183 + 4 x233 + 4 x283 + 4 x333 + 4 x383
       + 4 x433 + 4 x483 - 19 x533 <= 0
 c184: 4 x34 + 4 x84 + 4 x134 + 4 x184 + 4 x234 + 4 x284 + 4 x334 + 4 x384
       + 4 x434 + 4 x484 - 21 x534 <= 0
 c185: 4 x35 + 4 x85 + 4 x135 + 4 x185 + 4 x235 + 4 x285 + 4 x335 + 4 x385
       + 4 x435 + 4 x485 - 22 x535 <= 0
 c186: 4 x36 + 4 x86 + 4 x136 + 4 x186 + 4 x236 + 4 x286 + 4 x336 + 4 x386
       + 4 x436 + 4 x486 - 19 x536 <= 0
 c187: 4 x37 + 4 x87 + 4 x137 + 4 x187 + 4 x237 + 4 x287 + 4 x337 + 4 x387
       + 4 x437 + 4 x487 - 19 x537 <= 0
 c188: 4 x38 + 4 x88 + 4 x138 + 4 x188 + 4 x238 + 4 x288 + 4 x338 + 4 x388
       + 4 x438 + 4 x488 - 19 x538 <= 0
 c189: 4 x39 + 4 x89 + 4 x139 + 4 x189 + 4 x239 + 4 x289 + 4 x339 + 4 x389
       + 4 x439 + 4 x489 - 20 x539 <= 0
 c190: 4 x40 + 4 x90 + 4 x140 + 4 x190 + 4 x240 + 4 x290 + 4 x340 + 4 x390
       + 4 x440 + 4 x490 - 19 x540 <= 0
 c191: 4 x41 + 4 x91 + 4 x141 + 4 x191 + 4 x241 + 4 x291 + 4 x341 + 4 x391
       + 4 x441 + 4 x491 - 19 x541 <= 0
 c192: 4 x42 + 4 x92 + 4 x142 + 4 x192 + 4 x242 + 4 x292 + 4 x342 + 4 x392
       + 4 x442 + 4 x492 - 19 x542 <= 0
 c193: 4 x43 + 4 x93 + 4 x143 + 4 x193 + 4 x243 + 4 x293 + 4 x343 + 4 x393
       + 4 x443 + 4 x493 - 20 x543 <= 0
 c194: 4 x44 + 4 x94 + 4 x144 + 4 x194 + 4 x244 + 4 x294 + 4 x344 + 4 x394
       + 4 x444 + 4 x494 - 19 x544 <= 0
 c195: 4 x45 + 4 x95 + 4 x145 + 4 x195 + 4 x245 + 4 x295 + 4 x345 + 4 x395
       + 4 x445 + 4 x495 - 22 x545 <= 0
 c196: 4 x46 + 4 x96 + 4 x146 + 4 x196 + 4 x246 + 4 x296 + 4 x346 + 4 x396
       + 4 x446 + 4 x496 - 20 x546 <= 0
 c197: 4 x47 + 4 x97 + 4 x147 + 4 x197 + 4 x247 + 4 x297 + 4 x347 + 4 x397
       + 4 x447 + 4 x497 - 22 x547 <= 0
 c198: 4 x48 + 4 x98 + 4 x148 + 4 x198 + 4 x248 + 4 x298 + 4 x348 + 4 x398
       + 4 x448 + 4 x498 - 19 x548 <= 0
 c199: 4 x49 + 4 x99 + 4 x149 + 4 x199 + 4 x249 + 4 x299 + 4 x349 + 4 x399
       + 4 x449 + 4 x499 - 22 x549 <= 0
 c200: 4 x50 + 4 x100 + 4 x150 + 4 x200 + 4 x250 + 4 x300 + 4 x350 + 4 x400
       + 4 x450 + 4 x500 - 14 x550 <= 0
Bounds
 0 <= x1 <= 1
 0 <= x2 <= 1
 0 <= x3 <= 1
 0 <= x4 <= 1
 0 <= x5 <= 1
 0 <= x6 <= 1
 0 <= x7 <= 1
 0 <= x8 <= 1
 0 <= x9 <= 1
 0 <= x10 <= 1
 0 <= x11 <= 1
 0 <= x12 <= 1
 0 <= x13 <= 1
 0 <= x14 <= 1
 0 <= x15 <= 1
 0 <= x16 <= 1
 0 <= x17 <= 1
 0 <= x18 <= 1
 0 <= x19 <= 1
 0 <= x20 <= 1
 0 <= x21 <= 1
 0 <= x22 <= 1
 0 <= x23 <= 1
 0 <= x24 <= 1
 0 <= x25 <= 1
 0 <= x26 <= 1
 0 <= x27 <= 1
 0 <= x28 <= 1
 0 <= x29 <= 1
 0 <= x30 <= 1
 0 <= x31 <= 1
 0 <= x32 <= 1
 0 <= x33 <= 1
 0 <= x34 <= 1
 0 <= x35 <= 1
 0 <= x36 <= 1
 0 <= x37 <= 1
 0 <= x38 <= 1
 0 <= x39 <= 1
 0 <= x40 <= 1
 0 <= x41 <= 1
 0 <= x42 <= 1
 0 <= x43 <= 1
 0 <= x44 <= 1
 0 <= x45 <= 1
 0 <= x46 <= 1
 0 <= x47 <= 1
 0 <= x48 <= 1
 0 <= x49 <= 1
 0 <= x50 <= 1
 0 <= x51 <= 1
 0 <= x52 <= 1
 0 <= x53 <= 1
 0 <= x54 <= 1
 0 <= x55 <= 1
 0 <= x56 <= 1
 0 <= x57 <= 1
 0 <= x58 <= 1
 0 <= x59 <= 1
 0 <= x60 <= 1
 0 <= x61 <= 1
 0 <= x62 <= 1
 0 <= x63 <= 1
 0 <= x64 <= 1
 0 <= x65 <= 1
 0 <= x66 <= 1
 0 <= x67 <= 1
 0 <= x68 <= 1
 0 <= x69 <= 1
 0 <= x70 <= 1
 0 <= x71 <= 1
 0 <= x72 <= 1
 0 <= x73 <= 1
 0 <= x74 <= 1
 0 <= x75 <= 1
 0 <= x76 <= 1
 0 <= x77 <= 1
 0 <= x78 <= 1
 0 <= x79 <= 1
 0 <= x80 <= 1
 0 <= x81 <= 1
 0 <= x82 <= 1
 0 <= x83 <= 1
 0 <= x84 <= 1
 0 <= x85 <= 1
 0 <= x86 <= 1
 0 <= x87 <= 1
 0 <= x88 <= 1
 0 <= x89 <= 1
 0 <= x90 <= 1
 0 <= x91 <= 1
 0 <= x92 <= 1
 0 <= x93 <= 1
 0 <= x94 <= 1
 0 <= x95 <= 1
 0 <= x96 <= 1
 0 <= x97 <= 1
 0 <= x98 <= 1
 0 <= x99 <= 1
 0 <= x100 <= 1
 0 <= x101 <= 1
 0 <= x102 <= 1
 0 <= x103 <= 1
 0 <= x104 <= 1
 0 <= x105 <= 1
 0 <= x106 <= 1
 0 <= x107 <= 1
 0 <= x108 <= 1
 0 <= x109 <= 1
 0 <= x110 <= 1
 0 <= x111 <= 1
 0 <= x112 <= 1
 0 <= x113 <= 1
 0 <= x114 <= 1
 0 <= x115 <= 1
 0 <= x116 <= 1
 0 <= x117 <= 1
 0 <= x118 <= 1
 0 <= x119 <= 1
 0 <= x120 <= 1
 0 <= x121 <= 1
 0 <= x122 <= 1
 0 <= x123 <= 1
 0 <= x124 <= 1
 0 <= x125 <= 1
 0 <= x126 <= 1
 0 <= x127 <= 1
 0 <= x128 <= 1
 0 <= x129 <= 1
 0 <= x130 <= 1
 0 <= x131 <= 1
 0 <= x132 <= 1
 0 <= x133 <= 1
 0 <= x134 <= 1
 0 <= x135 <= 1
 0 <= x136 <= 1
 0 <= x137 <= 1
 0 <= x138 <= 1
 0 <= x139 <= 1
 0 <= x140 <= 1
 0 <= x141 <= 1
 0 <= x142 <= 1
 0 <= x143 <= 1
 0 <= x144 <= 1
 0 <= x145 <= 1
 0 <= x146 <= 1
 0 <= x147 <= 1
 0 <= x148 <= 1
 0 <= x149 <= 1
 0 <= x150 <= 1
 0 <= x151 <= 1
 0 <= x152 <= 1
 0 <= x153 <= 1
 0 <= x154 <= 1
 0 <= x155 <= 1
 0 <= x156 <= 1
 0 <= x157 <= 1
 0 <= x158 <= 1
 0 <= x159 <= 1
 0 <= x160 <= 1
 0 <= x161 <= 1
 0 <= x162 <= 1
 0 <= x163 <= 1
 0 <= x164 <= 1
 0 <= x165 <= 1
 0 <= x166 <= 1
 0 <= x167 <= 1
 0 <= x168 <= 1
 0 <= x169 <= 1
 0 <= x170 <= 1
 0 <= x171 <= 1
 0 <= x172 <= 1
 0 <= x173 <= 1
 0 <= x174 <= 1
 0 <= x175 <= 1
 0 <= x176 <= 1
 0 <= x177 <= 1
 0 <= x178 <= 1
 0 <= x179 <= 1
 0 <= x180 <= 1
 0 <= x181 <= 1
 0 <= x182 <= 1
 0 <= x183 <= 1
 0 <= x184 <= 1
 0 <= x185 <= 1
 0 <= x186 <= 1
 0 <= x187 <= 1
 0 <= x188 <= 1
 0 <= x189 <= 1
 0 <= x190 <= 1
 0 <= x191 <= 1
 0 <= x192 <= 1
 0 <= x193 <= 1
 0 <= x194 <= 1
 0 <= x195 <= 1
 0 <= x196 <= 1
 0 <= x197 <= 1
 0 <= x198 <= 1
 0 <= x199 <= 1
 0 <= x200 <= 1
 0 <= x201 <= 1
 0 <= x202 <= 1
 0 <= x203 <= 1
 0 <= x204 <= 1
 0 <= x205 <= 1
 0 <= x206 <= 1
 0 <= x207 <= 1
 0 <= x208 <= 1
 0 <= x209 <= 1
 0 <= x210 <= 1
 0 <= x211 <= 1
 0 <= x212 <= 1
 0 <= x213 <= 1
 0 <= x214 <= 1
 0 <= x215 <= 1
 0 <= x216 <= 1
 0 <= x217 <= 1
 0 <= x218 <= 1
 0 <= x219 <= 1
 0 <= x220 <= 1
 0 <= x221 <= 1
 0 <= x222 <= 1
 0 <= x223 <= 1
 0 <= x224 <= 1
 0 <= x225 <= 1
 0 <= x226 <= 1
 0 <= x227 <= 1
 0 <= x228 <= 1
 0 <= x229 <= 1
 0 <= x230 <= 1
 0 <= x231 <= 1
 0 <= x232 <= 1
 0 <= x233 <= 1
 0 <= x234 <= 1
 0 <= x235 <= 1
 0 <= x236 <= 1
 0 <= x237 <= 1
 0 <= x238 <= 1
 0 <= x239 <= 1
 0 <= x240 <= 1
 0 <= x241 <= 1
 0 <= x242 <= 1
 0 <= x243 <= 1
 0 <= x244 <= 1
 0 <= x245 <= 1
 0 <= x246 <= 1
 0 <= x247 <= 1
 0 <= x248 <= 1
 0 <= x249 <= 1
 0 <= x250 <= 1
 0 <= x251 <= 1
 0 <= x252 <= 1
 0 <= x253 <= 1
 0 <= x254 <= 1
 0 <= x255 <= 1
 0 <= x256 <= 1
 0 <= x257 <= 1
 0 <= x258 <= 1
 0 <= x259 <= 1
 0 <= x260 <= 1
 0 <= x261 <= 1
 0 <= x262 <= 1
 0 <= x263 <= 1
 0 <= x264 <= 1
 0 <= x265 <= 1
 0 <= x266 <= 1
 0 <= x267 <= 1
 0 <= x268 <= 1
 0 <= x269 <= 1
 0 <= x270 <= 1
 0 <= x271 <= 1
 0 <= x272 <= 1
 0 <= x273 <= 1
 0 <= x274 <= 1
 0 <= x275 <= 1
 0 <= x276 <= 1
 0 <= x277 <= 1
 0 <= x278 <= 1
 0 <= x279 <= 1
 0 <= x280 <= 1
 0 <= x281 <= 1
 0 <= x282 <= 1
 0 <= x283 <= 1
 0 <= x284 <= 1
 0 <= x285 <= 1
 0 <= x286 <= 1
 0 <= x287 <= 1
 0 <= x288 <= 1
 0 <= x289 <= 1
 0 <= x290 <= 1
 0 <= x291 <= 1
 0 <= x292 <= 1
 0 <= x293 <= 1
 0 <= x294 <= 1
 0 <= x295 <= 1
 0 <= x296 <= 1
 0 <= x297 <= 1
 0 <= x298 <= 1
 0 <= x299 <= 1
 0 <= x300 <= 1
 0 <= x301 <= 1
 0 <= x302 <= 1
 0 <= x303 <= 1
 0 <= x304 <= 1
 0 <= x305 <= 1
 0 <= x306 <= 1
 0 <= x307 <= 1
 0 <= x308 <= 1
 0 <= x309 <= 1
 0 <= x310 <= 1
 0 <= x311 <= 1
 0 <= x312 <= 1
 0 <= x313 <= 1
 0 <= x314 <= 1
 0 <= x315 <= 1
 0 <= x316 <= 1
 0 <= x317 <= 1
 0 <= x318 <= 1
 0 <= x319 <= 1
 0 <= x320 <= 1
 0 <= x321 <= 1
 0 <= x322 <= 1
 0 <= x323 <= 1
 0 <= x324 <= 1
 0 <= x325 <= 1
 0 <= x326 <= 1
 0 <= x327 <= 1
 0 <= x328 <= 1
 0 <= x329 <= 1
 0 <= x330 <= 1
 0 <= x331 <= 1
 0 <= x332 <= 1
 0 <= x333 <= 1
 0 <= x334 <= 1
 0 <= x335 <= 1
 0 <= x336 <= 1
 0 <= x337 <= 1
 0 <= x338 <= 1
 0 <= x339 <= 1
 0 <= x340 <= 1
 0 <= x341 <= 1
 0 <= x342 <= 1
 0 <= x343 <= 1
 0 <= x344 <= 1
 0 <= x345 <= 1
 0 <= x346 <= 1
 0 <= x347 <= 1
 0 <= x348 <= 1
 0 <= x349 <= 1
 0 <= x350 <= 1
 0 <= x351 <= 1
 0 <= x352 <= 1
 0 <= x353 <= 1
 0 <= x354 <= 1
 0 <= x355 <= 1
 0 <= x356 <= 1
 0 <= x357 <= 1
 0 <= x358 <= 1
 0 <= x359 <= 1
 0 <= x360 <= 1
 0 <= x361 <= 1
 0 <= x362 <= 1
 0 <= x363 <= 1
 0 <= x364 <= 1
 0 <= x365 <= 1
 0 <= x366 <= 1
 0 <= x367 <= 1
 0 <= x368 <= 1
 0 <= x369 <= 1
 0 <= x370 <= 1
 0 <= x371 <= 1
 0 <= x372 <= 1
 0 <= x373 <= 1
 0 <= x374 <= 1
 0 <= x375 <= 1
 0 <= x376 <= 1
 0 <= x377 <= 1
 0 <= x378 <= 1
 0 <= x379 <= 1
 0 <= x380 <= 1
 0 <= x381 <= 1
 0 <= x382 <= 1
 0 <= x383 <= 1
 0 <= x384 <= 1
 0 <= x385 <= 1
 0 <= x386 <= 1
 0 <= x387 <= 1
 0 <= x388 <= 1
 0 <= x389 <= 1
 0 <= x390 <= 1
 0 <= x391 <= 1
 0 <= x392 <= 1
 0 <= x393 <= 1
 0 <= x394 <= 1
 0 <= x395 <= 1
 0 <= x396 <= 1
 0 <= x397 <= 1
 0 <= x398 <= 1
 0 <= x399 <= 1
 0 <= x400 <= 1
 0 <= x401 <= 1
 0 <= x402 <= 1
 0 <= x403 <= 1
 0 <= x404 <= 1
 0 <= x405 <= 1
 0 <= x406 <= 1
 0 <= x407 <= 1
 0 <= x408 <= 1
 0 <= x409 <= 1
 0 <= x410 <= 1
 0 <= x411 <= 1
 0 <= x412 <= 1
 0 <= x413 <= 1
 0 <= x414 <= 1
 0 <= x415 <= 1
 0 <= x416 <= 1
 0 <= x417 <= 1
 0 <= x418 <= 1
 0 <= x419 <= 1
 0 <= x420 <= 1
 0 <= x421 <= 1
 0 <= x422 <= 1
 0 <= x423 <= 1
 0 <= x424 <= 1
 0 <= x425 <= 1
 0 <= x426 <= 1
 0 <= x427 <= 1
 0 <= x428 <= 1
 0 <= x429 <= 1
 0 <= x430 <= 1
 0 <= x431 <= 1
 0 <= x432 <= 1
 0 <= x433 <= 1
 0 <= x434 <= 1
 0 <= x435 <= 1
 0 <= x436 <= 1
 0 <= x437 <= 1
 0 <= x438 <= 1
 0 <= x439 <= 1
 0 <= x440 <= 1
 0 <= x441 <= 1
 0 <= x442 <= 1
 0 <= x443 <= 1
 0 <= x444 <= 1
 0 <= x445 <= 1
 0 <= x446 <= 1
 0 <= x447 <= 1
 0 <= x448 <= 1
 0 <= x449 <= 1
 0 <= x450 <= 1
 0 <= x451 <= 1
 0 <= x452 <= 1
 0 <= x453 <= 1
 0 <= x454 <= 1
 0 <= x455 <= 1
 0 <= x456 <= 1
 0 <= x457 <= 1
 0 <= x458 <= 1
 0 <= x459 <= 1
 0 <= x460 <= 1
 0 <= x461 <= 1
 0 <= x462 <= 1
 0 <= x463 <= 1
 0 <= x464 <= 1
 0 <= x465 <= 1
 0 <= x466 <= 1
 0 <= x467 <= 1
 0 <= x468 <= 1
 0 <= x469 <= 1
 0 <= x470 <= 1
 0 <= x471 <= 1
 0 <= x472 <= 1
 0 <= x473 <= 1
 0 <= x474 <= 1
 0 <= x475 <= 1
 0 <= x476 <= 1
 0 <= x477 <= 1
 0 <= x478 <= 1
 0 <= x479 <= 1
 0 <= x480 <= 1
 0 <= x481 <= 1
 0 <= x482 <= 1
 0 <= x483 <= 1
 0 <= x484 <= 1
 0 <= x485 <= 1
 0 <= x486 <= 1
 0 <= x487 <= 1
 0 <= x488 <= 1
 0 <= x489 <= 1
 0 <= x490 <= 1
 0 <= x491 <= 1
 0 <= x492 <= 1
 0 <= x493 <= 1
 0 <= x494 <= 1
 0 <= x495 <= 1
 0 <= x496 <= 1
 0 <= x497 <= 1
 0 <= x498 <= 1
 0 <= x499 <= 1
 0 <= x500 <= 1
 0 <= x501 <= 1
 0 <= x502 <= 1
 0 <= x503 <= 1
 0 <= x504 <= 1
 0 <= x505 <= 1
 0 <= x506 <= 1
 0 <= x507 <= 1
 0 <= x508 <= 1
 0 <= x509 <= 1
 0 <= x510 <= 1
 0 <= x511 <= 1
 0 <= x512 <= 1
 0 <= x513 <= 1
 0 <= x514 <= 1
 0 <= x515 <= 1
 0 <= x516 <= 1
 0 <= x517 <= 1
 0 <= x518 <= 1
 0 <= x519 <= 1
 0 <= x520 <= 1
 0 <= x521 <= 1
 0 <= x522 <= 1
 0 <= x523 <= 1
 0 <= x524 <= 1
 0 <= x525 <= 1
 0 <= x526 <= 1
 0 <= x527 <= 1
 0 <= x528 <= 1
 0 <= x529 <= 1
 0 <= x530 <= 1
 0 <= x531 <= 1
 0 <= x532 <= 1
 0 <= x533 <= 1
 0 <= x534 <= 1
 0 <= x535 <= 1
 0 <= x536 <= 1
 0 <= x537 <= 1
 0 <= x538 <= 1
 0 <= x539 <= 1
 0 <= x540 <= 1
 0 <= x541 <= 1
 0 <= x542 <= 1
 0 <= x543 <= 1
 0 <= x544 <= 1
 0 <= x545 <= 1
 0 <= x546 <= 1
 0 <= x547 <= 1
 0 <= x548 <= 1
 0 <= x549 <= 1
 0 <= x550 <= 1
Binaries
 x501  x502  x503  x504  x505  x506  x507  x508  x509  x510  x511  x512  x513 
 x514  x515  x516  x517  x518  x519  x520  x521  x522  x523  x524  x525  x526 
 x527  x528  x529  x530  x531  x532  x533  x534  x535  x536  x537  x538  x539 
 x540  x541  x542  x543  x544  x545  x546  x547  x548  x549  x550 
End
